NAME : simple10
COMMENT : Simple 10-city test instance
TYPE : TSP
DIMENSION : 10
EDGE_WEIGHT_TYPE : EUC_2D
NODE_COORD_SECTION
1 10.0 10.0
2 20.0 15.0
3 30.0 20.0
4 40.0 25.0
5 50.0 30.0
6 60.0 25.0
7 70.0 20.0
8 80.0 15.0
9 90.0 10.0
10 50.0 50.0
EOF
